(set-info :smt-lib-version 2.6)
(set-logic UF)
(set-info :source |Benchmarks from the paper: "Extending Sledgehammer with SMT Solvers" by Jasmin Blanchette, Sascha Bohme, and Lawrence C. Paulson, CADE 2011.  Translated to SMT2 by Andrew Reynolds and Morgan Deters.|)
(set-info :category "industrial")
(set-info :status unknown)
(declare-sort S1 0)
(declare-sort S2 0)
(declare-sort S3 0)
(declare-sort S4 0)
(declare-sort S5 0)
(declare-sort S6 0)
(declare-sort S7 0)
(declare-sort S8 0)
(declare-sort S9 0)
(declare-sort S10 0)
(declare-sort S11 0)
(declare-sort S12 0)
(declare-sort S13 0)
(declare-sort S14 0)
(declare-sort S15 0)
(declare-sort S16 0)
(declare-sort S17 0)
(declare-sort S18 0)
(declare-sort S19 0)
(declare-sort S20 0)
(declare-sort S21 0)
(declare-sort S22 0)
(declare-sort S23 0)
(declare-sort S24 0)
(declare-sort S25 0)
(declare-sort S26 0)
(declare-sort S27 0)
(declare-sort S28 0)
(declare-sort S29 0)
(declare-sort S30 0)
(declare-fun f1 () S1)
(declare-fun f2 () S1)
(declare-fun f3 (S2 S3) S1)
(declare-fun f4 (S4 S5) S2)
(declare-fun f5 (S6 S7) S4)
(declare-fun f6 (S8 S7) S6)
(declare-fun f7 () S8)
(declare-fun f8 () S7)
(declare-fun f9 () S7)
(declare-fun f10 (S9 S5) S5)
(declare-fun f11 (S10 S11) S9)
(declare-fun f12 () S10)
(declare-fun f13 () S11)
(declare-fun f14 (S12 S5) S9)
(declare-fun f15 () S12)
(declare-fun f16 (S13 S11) S5)
(declare-fun f17 () S13)
(declare-fun f18 () S11)
(declare-fun f19 () S3)
(declare-fun f20 (S14 S15) S1)
(declare-fun f21 (S16 S17) S14)
(declare-fun f22 () S16)
(declare-fun f23 (S7 S7 S5) S17)
(declare-fun f24 (S18 S3) S15)
(declare-fun f25 () S18)
(declare-fun f26 (S19 S20) S1)
(declare-fun f27 (S21 S5) S19)
(declare-fun f28 () S21)
(declare-fun f29 () S13)
(declare-fun f30 (S22 S20) S20)
(declare-fun f31 () S22)
(declare-fun f32 (S23 S3) S20)
(declare-fun f33 (S24 S7) S23)
(declare-fun f34 () S24)
(declare-fun f35 () S7)
(declare-fun f36 (S25 S26) S1)
(declare-fun f37 (S27 S7) S25)
(declare-fun f38 () S27)
(declare-fun f39 () S26)
(declare-fun f40 (S28 S2) S1)
(declare-fun f41 (S29 S3) S28)
(declare-fun f42 () S29)
(declare-fun f43 () S2)
(declare-fun f44 (S30 S7) S11)
(declare-fun f45 () S30)
(declare-fun f46 () S22)
(assert (not (= f1 f2)))
(assert (let ((?v_0 (f16 f17 f18))) (not (= (f3 (f4 (f5 (f6 f7 f8) f9) (f10 (f11 f12 f13) (f10 (f14 f15 ?v_0) ?v_0))) f19) f1))))
(assert (let ((?v_0 (f16 f17 f18))) (= (f20 (f21 f22 (f23 f8 f9 (f10 (f11 f12 f13) (f10 (f14 f15 ?v_0) ?v_0)))) (f24 f25 f19)) f1)))
(assert (not (= (f26 (f27 f28 (f16 f29 f13)) (f30 f31 (f32 (f33 f34 f35) f19))) f1)))
(assert (not (= (f36 (f37 f38 f8) f39) f1)))
(assert (not (= (f36 (f37 f38 f9) f39) f1)))
(assert (= (f40 (f41 f42 f19) f43) f1))
(assert (forall ((?v0 S7) (?v1 S7) (?v2 S11) (?v3 S11) (?v4 S3)) (let ((?v_0 (f10 (f11 f12 ?v2) (f16 f17 ?v3)))) (=> (= (f20 (f21 f22 (f23 ?v0 ?v1 ?v_0)) (f24 f25 ?v4)) f1) (=> (not (= (f26 (f27 f28 (f16 f29 ?v2)) (f30 f31 (f32 (f33 f34 f35) ?v4))) f1)) (=> (not (= (f36 (f37 f38 ?v1) f39) f1)) (=> (not (= (f36 (f37 f38 ?v0) f39) f1)) (=> (= (f40 (f41 f42 ?v4) f43) f1) (= (f3 (f4 (f5 (f6 f7 ?v0) ?v1) ?v_0) ?v4) f1)))))))))
(assert (= (f36 (f37 f38 f35) f39) f1))
(assert (forall ((?v0 S7) (?v1 S7) (?v2 S5) (?v3 S3)) (=> (= (f20 (f21 f22 (f23 ?v0 ?v1 ?v2)) (f24 f25 ?v3)) f1) (= (f26 (f27 f28 ?v2) (f30 f31 (f32 (f33 f34 f35) ?v3))) f1))))
(assert (forall ((?v0 S5) (?v1 S5) (?v2 S20)) (let ((?v_0 (f30 f31 ?v2))) (=> (= (f26 (f27 f28 (f10 (f14 f15 ?v0) ?v1)) ?v_0) f1) (=> (=> (= (f26 (f27 f28 ?v0) ?v_0) f1) (=> (= (f26 (f27 f28 ?v1) ?v_0) f1) false)) false)))))
(assert (forall ((?v0 S7) (?v1 S7) (?v2 S5) (?v3 S3)) (=> (= (f20 (f21 f22 (f23 ?v0 ?v1 ?v2)) (f24 f25 ?v3)) f1) (= (f26 (f27 f28 ?v2) (f32 (f33 f34 f35) ?v3)) f1))))
(assert (forall ((?v0 S7) (?v1 S7) (?v2 S5) (?v3 S3)) (=> (= (f20 (f21 f22 (f23 ?v0 ?v1 ?v2)) (f24 f25 ?v3)) f1) (= (f26 (f27 f28 ?v2) (f32 (f33 f34 ?v0) ?v3)) f1))))
(assert (forall ((?v0 S5) (?v1 S3) (?v2 S1)) (let ((?v_0 (=> (not (= (f26 (f27 f28 ?v0) (f30 f31 (f32 (f33 f34 f35) ?v1))) f1)) (= ?v2 f1)))) (=> ?v_0 ?v_0))))
(assert (forall ((?v0 S5) (?v1 S20)) (let ((?v_0 (f27 f28 ?v0))) (=> (= (f26 ?v_0 ?v1) f1) (= (f26 ?v_0 (f30 f31 ?v1)) f1)))))
(assert (forall ((?v0 S11) (?v1 S11) (?v2 S5)) (not (= (f16 f17 ?v0) (f10 (f11 f12 ?v1) ?v2)))))
(assert (forall ((?v0 S11) (?v1 S5) (?v2 S11)) (not (= (f10 (f11 f12 ?v0) ?v1) (f16 f17 ?v2)))))
(assert (forall ((?v0 S11) (?v1 S11)) (not (= (f16 f29 ?v0) (f16 f17 ?v1)))))
(assert (forall ((?v0 S11) (?v1 S11)) (not (= (f16 f17 ?v0) (f16 f29 ?v1)))))
(assert (forall ((?v0 S11) (?v1 S5) (?v2 S5)) (not (= (f16 f17 ?v0) (f10 (f14 f15 ?v1) ?v2)))))
(assert (forall ((?v0 S5) (?v1 S20)) (let ((?v_0 (f27 f28 ?v0)) (?v_1 (f30 f31 ?v1))) (=> (= (f26 ?v_0 (f30 f31 ?v_1)) f1) (= (f26 ?v_0 ?v_1) f1)))))
(assert (forall ((?v0 S20)) (let ((?v_0 (f30 f31 ?v0))) (= (f30 f31 ?v_0) ?v_0))))
(assert (forall ((?v0 S5) (?v1 S5) (?v2 S5) (?v3 S5)) (= (= (f10 (f14 f15 ?v0) ?v1) (f10 (f14 f15 ?v2) ?v3)) (and (= ?v0 ?v2) (= ?v1 ?v3)))))
(assert (forall ((?v0 S11) (?v1 S11)) (= (= (f16 f29 ?v0) (f16 f29 ?v1)) (= ?v0 ?v1))))
(assert (forall ((?v0 S11) (?v1 S5) (?v2 S11) (?v3 S5)) (= (= (f10 (f11 f12 ?v0) ?v1) (f10 (f11 f12 ?v2) ?v3)) (and (= ?v0 ?v2) (= ?v1 ?v3)))))
(assert (forall ((?v0 S11) (?v1 S11)) (= (= (f16 f17 ?v0) (f16 f17 ?v1)) (= ?v0 ?v1))))
(assert (forall ((?v0 S7) (?v1 S7) (?v2 S5) (?v3 S7) (?v4 S7) (?v5 S5)) (= (= (f23 ?v0 ?v1 ?v2) (f23 ?v3 ?v4 ?v5)) (and (= ?v0 ?v3) (and (= ?v1 ?v4) (= ?v2 ?v5))))))
(assert (forall ((?v0 S5) (?v1 S5) (?v2 S20)) (let ((?v_0 (f30 f31 ?v2))) (=> (= (f26 (f27 f28 (f10 (f14 f15 ?v0) ?v1)) ?v_0) f1) (= (f26 (f27 f28 ?v1) ?v_0) f1)))))
(assert (forall ((?v0 S5) (?v1 S5) (?v2 S20)) (let ((?v_0 (f30 f31 ?v2))) (=> (= (f26 (f27 f28 (f10 (f14 f15 ?v0) ?v1)) ?v_0) f1) (= (f26 (f27 f28 ?v0) ?v_0) f1)))))
(assert (forall ((?v0 S5) (?v1 S5) (?v2 S11)) (not (= (f10 (f14 f15 ?v0) ?v1) (f16 f29 ?v2)))))
(assert (forall ((?v0 S11) (?v1 S5) (?v2 S5)) (not (= (f16 f29 ?v0) (f10 (f14 f15 ?v1) ?v2)))))
(assert (forall ((?v0 S5) (?v1 S5) (?v2 S11) (?v3 S5)) (not (= (f10 (f14 f15 ?v0) ?v1) (f10 (f11 f12 ?v2) ?v3)))))
(assert (forall ((?v0 S11) (?v1 S5) (?v2 S5) (?v3 S5)) (not (= (f10 (f11 f12 ?v0) ?v1) (f10 (f14 f15 ?v2) ?v3)))))
(assert (forall ((?v0 S11) (?v1 S5) (?v2 S11)) (not (= (f10 (f11 f12 ?v0) ?v1) (f16 f29 ?v2)))))
(assert (forall ((?v0 S11) (?v1 S11) (?v2 S5)) (not (= (f16 f29 ?v0) (f10 (f11 f12 ?v1) ?v2)))))
(assert (forall ((?v0 S5) (?v1 S5) (?v2 S11)) (not (= (f10 (f14 f15 ?v0) ?v1) (f16 f17 ?v2)))))
(assert (forall ((?v0 S3) (?v1 S7)) (=> (= (f40 (f41 f42 ?v0) f43) f1) (= (= (f26 (f27 f28 (f16 f29 (f44 f45 ?v1))) (f30 f31 (f32 (f33 f34 f35) ?v0))) f1) (= (f36 (f37 f38 ?v1) f39) f1)))))
(assert (forall ((?v0 S7) (?v1 S7) (?v2 S11) (?v3 S5) (?v4 S5) (?v5 S5) (?v6 S5) (?v7 S3)) (=> (= (f20 (f21 f22 (f23 ?v0 ?v1 (f10 (f11 f12 ?v2) (f10 (f14 f15 ?v3) (f10 (f14 f15 ?v4) (f10 (f14 f15 ?v5) ?v6)))))) (f24 f25 ?v7)) f1) (= (f26 (f27 f28 ?v6) (f30 f46 (f32 (f33 f34 f35) ?v7))) f1))))
(assert (forall ((?v0 S20)) (=> (forall ((?v1 S5) (?v2 S5)) (not (= (f26 (f27 f28 (f10 (f14 f15 ?v1) ?v2)) ?v0) f1))) (=> (forall ((?v1 S5) (?v2 S11)) (not (= (f26 (f27 f28 (f10 (f11 f12 ?v2) ?v1)) ?v0) f1))) (= (f30 f31 ?v0) ?v0)))))
(check-sat)
(exit)
